p wcnf 172 344 345 
1 55 26 0 
1 101 30 0 
1 -138 -66 0 
1 -76 -153 0 
1 96 103 0 
1 -52 170 0 
1 111 -122 0 
1 34 -138 0 
1 117 -10 0 
1 44 -167 0 
1 165 -143 0 
1 -4 -30 0 
1 161 48 0 
1 -45 -56 0 
1 -143 -75 0 
1 -19 -138 0 
1 93 73 0 
1 112 89 0 
1 121 -78 0 
1 -10 4 0 
1 131 -133 0 
1 80 142 0 
1 -28 152 0 
1 114 -77 0 
1 118 25 0 
1 44 -145 0 
1 -53 -74 0 
1 -61 -55 0 
1 -119 -98 0 
1 38 -17 0 
1 76 -26 0 
1 101 86 0 
1 146 -20 0 
1 1 21 0 
1 -105 -121 0 
1 -163 83 0 
1 -167 -112 0 
1 147 -41 0 
1 -114 154 0 
1 -83 142 0 
1 28 -43 0 
1 150 160 0 
1 169 37 0 
1 136 -80 0 
1 42 160 0 
1 115 89 0 
1 -153 81 0 
1 34 -13 0 
1 64 -56 0 
1 -128 88 0 
1 -87 13 0 
1 67 -73 0 
1 129 5 0 
1 141 -168 0 
1 64 -5 0 
1 100 63 0 
1 83 -24 0 
1 128 -55 0 
1 16 166 0 
1 86 54 0 
1 -70 53 0 
1 -142 -15 0 
1 -118 -172 0 
1 -124 -147 0 
1 39 113 0 
1 -143 -78 0 
1 -31 -111 0 
1 64 15 0 
1 97 77 0 
1 -155 -112 0 
1 91 163 0 
1 69 -116 0 
1 -11 -18 0 
1 -86 -20 0 
1 -124 169 0 
1 -159 110 0 
1 150 -121 0 
1 -36 80 0 
1 150 -138 0 
1 -117 120 0 
1 -59 -144 0 
1 90 109 0 
1 95 28 0 
1 108 27 0 
1 -8 -83 0 
1 -42 148 0 
1 -58 -86 0 
1 172 22 0 
1 10 140 0 
1 -107 156 0 
1 95 -7 0 
1 -56 20 0 
1 117 65 0 
1 94 -51 0 
1 -123 -128 0 
1 160 164 0 
1 143 -39 0 
1 33 -141 0 
1 -13 -47 0 
1 -17 -40 0 
1 -166 140 0 
1 125 -149 0 
1 55 85 0 
1 -20 111 0 
1 49 95 0 
1 96 -90 0 
1 -67 92 0 
1 144 45 0 
1 -138 89 0 
1 31 -7 0 
1 53 76 0 
1 -94 152 0 
1 168 39 0 
1 -14 -43 0 
1 -109 111 0 
1 114 117 0 
1 -130 -24 0 
1 75 15 0 
1 -117 -155 0 
1 -53 -42 0 
1 -76 167 0 
1 17 15 0 
1 -30 -85 0 
1 -99 137 0 
1 -128 51 0 
1 -56 123 0 
1 -172 -1 0 
1 -121 -169 0 
1 -61 45 0 
1 -54 -71 0 
1 125 88 0 
1 111 -7 0 
1 139 79 0 
1 72 147 0 
1 -11 -27 0 
1 -11 -159 0 
1 -99 114 0 
1 -145 15 0 
1 6 1 0 
1 -130 -107 0 
1 -53 104 0 
1 96 40 0 
1 -19 76 0 
1 52 154 0 
1 -32 -127 0 
1 111 55 0 
1 -171 24 0 
1 -80 -57 0 
1 -103 -152 0 
1 55 64 0 
1 -120 -35 0 
1 51 -133 0 
1 33 56 0 
1 -11 -38 0 
1 125 4 0 
1 -65 55 0 
1 -61 57 0 
1 -159 -136 0 
1 -130 -36 0 
1 -55 95 0 
1 -127 62 0 
1 -136 130 0 
1 32 -161 0 
1 -65 -148 0 
1 153 66 0 
1 -171 -58 0 
1 -108 -128 0 
1 159 49 0 
1 70 72 0 
1 50 108 0 
1 -75 -62 0 
1 -18 -31 0 
1 -46 -107 0 
1 128 -41 0 
1 63 -54 0 
1 -100 -142 0 
1 -3 -59 0 
1 -147 -50 0 
1 95 124 0 
1 64 4 0 
1 138 162 0 
1 9 -79 0 
1 42 96 0 
1 -39 -104 0 
1 -68 16 0 
1 133 40 0 
1 -126 103 0 
1 76 -123 0 
1 -129 122 0 
1 20 -13 0 
1 71 -13 0 
1 28 -129 0 
1 -63 -143 0 
1 77 -57 0 
1 112 15 0 
1 120 169 0 
1 31 166 0 
1 60 156 0 
1 -9 157 0 
1 10 -93 0 
1 -52 -75 0 
1 18 -49 0 
1 69 -29 0 
1 152 109 0 
1 68 -38 0 
1 42 -83 0 
1 60 -129 0 
1 -156 -73 0 
1 -39 16 0 
1 141 -143 0 
1 134 -136 0 
1 -96 169 0 
1 114 160 0 
1 -63 163 0 
1 -133 -117 0 
1 -131 159 0 
1 -12 115 0 
1 87 -160 0 
1 -56 -133 0 
1 -102 -23 0 
1 127 26 0 
1 -25 20 0 
1 -156 -33 0 
1 -157 -56 0 
1 21 -33 0 
1 149 28 0 
1 115 159 0 
1 63 34 0 
1 108 15 0 
1 -116 155 0 
1 116 -61 0 
1 -77 -86 0 
1 142 -52 0 
1 -63 -35 0 
1 -29 116 0 
1 -66 150 0 
1 127 55 0 
1 75 -97 0 
1 59 62 0 
1 60 -102 0 
1 8 -110 0 
1 -83 47 0 
1 112 66 0 
1 165 79 0 
1 -6 105 0 
1 -143 -29 0 
1 -78 44 0 
1 -40 -49 0 
1 126 60 0 
1 -65 -48 0 
1 -123 102 0 
1 46 151 0 
1 67 87 0 
1 78 129 0 
1 -162 57 0 
1 -83 -168 0 
1 -127 -132 0 
1 -36 111 0 
1 -42 -46 0 
1 106 7 0 
1 -137 -9 0 
1 -95 -151 0 
1 -113 -101 0 
1 -89 -164 0 
1 -36 19 0 
1 -97 -57 0 
1 122 60 0 
1 1 48 0 
1 -107 123 0 
1 -157 -61 0 
1 -38 -15 0 
1 -22 -9 0 
1 98 -114 0 
1 106 162 0 
1 -130 -125 0 
1 51 -153 0 
1 -43 -49 0 
1 -8 -137 0 
1 125 54 0 
1 -144 114 0 
1 -144 -158 0 
1 32 22 0 
1 123 -113 0 
1 122 -31 0 
1 -98 117 0 
1 -36 43 0 
1 -134 -133 0 
1 -19 -126 0 
1 93 62 0 
1 4 -100 0 
1 -111 133 0 
1 -126 112 0 
1 124 20 0 
1 127 -150 0 
1 -126 -17 0 
1 68 -143 0 
1 135 -108 0 
1 -29 5 0 
1 -17 39 0 
1 -86 -156 0 
1 -66 155 0 
1 -161 167 0 
1 87 132 0 
1 -49 -107 0 
1 -46 148 0 
1 -72 18 0 
1 -111 113 0 
1 128 7 0 
1 29 134 0 
1 161 16 0 
1 172 171 0 
1 -122 -40 0 
1 121 -11 0 
1 -43 -139 0 
1 141 58 0 
1 3 -19 0 
1 116 -51 0 
1 -85 154 0 
1 -10 -144 0 
1 92 -86 0 
1 25 27 0 
1 20 -11 0 
1 134 72 0 
1 61 -80 0 
1 -14 135 0 
1 27 25 0 
1 -30 -136 0 
1 -163 2 0 
1 -94 158 0 
1 82 68 0 
1 122 -5 0 
1 62 26 0 
1 -113 125 0 
1 6 -149 0 
1 -32 -84 0 
1 148 -101 0 
1 147 42 0 
1 1 8 0 
1 -103 43 0 
1 -131 153 0 
1 102 79 0 
1 52 27 0 
1 -7 -98 0 
1 -66 -130 0 
